Grasp exp. instance_n_25_m_5_id_2.lp tipoLifted 0 szPool 5 nIteration 100 alpha 0.2 
Academic license - for non-commercial use only
Read LP format model from file ../input/instancesGenerated/instance_n_25_m_5_id_2.lp
Reading time = 0.00 seconds
: 5 rows, 25 columns, 125 nonzeros
Optimize a model with 5 rows, 25 columns and 125 nonzeros
Variable types: 0 continuous, 25 integer (25 binary)
Coefficient statistics:
  Matrix range     [1e+00, 1e+01]
  Objective range  [1e+00, 1e+01]
  Bounds range     [1e+00, 1e+00]
  RHS range        [7e+01, 8e+01]
Found heuristic solution: objective 63.0000000

Explored 0 nodes (0 simplex iterations) in 0.00 seconds
Thread count was 1 (of 8 available processors)

Solution count 1: 63 
No other solutions better than 0

Solution limit reached
Best objective 6.300000000000e+01, best bound -, gap -
C_1:	 5.00 x_1  = 0.783784 + 10.00 x_2  = 1.000000 + 2.00 x_3  = 0.000000 + 1.00 x_4  = 1.000000 + 6.00 x_5  = 1.000000 + 10.00 x_6  = 0.054054 + 6.00 x_7  = 0.000000 + 6.00 x_8  = 0.256757 + 1.00 x_9  = 0.000000 + 1.00 x_10  = 1.000000 + 5.00 x_11  = 1.000000 + 7.00 x_12  = 0.000000 + 7.00 x_13  = 0.000000 + 9.00 x_14  = 1.000000 + 10.00 x_15  = 1.000000 + 5.00 x_16  = 1.000000 + 5.00 x_17  = 1.000000 + 1.00 x_18  = 0.000000 + 8.00 x_19  = 0.000000 + 6.00 x_20  = 0.000000 + 2.00 x_21  = 0.000000 + 7.00 x_22  = 0.000000 + 7.00 x_23  = 0.000000 + 2.00 x_24  = 1.000000 + 9.00 x_25  = 1.000000 <= 69.00
C_2:	 8.00 x_1  = 0.783784 + 6.00 x_2  = 1.000000 + 6.00 x_3  = 0.000000 + 1.00 x_4  = 1.000000 + 1.00 x_5  = 1.000000 + 4.00 x_6  = 0.054054 + 7.00 x_7  = 0.000000 + 2.00 x_8  = 0.256757 + 7.00 x_9  = 0.000000 + 8.00 x_10  = 1.000000 + 9.00 x_11  = 1.000000 + 6.00 x_12  = 0.000000 + 5.00 x_13  = 0.000000 + 5.00 x_14  = 1.000000 + 9.00 x_15  = 1.000000 + 8.00 x_16  = 1.000000 + 9.00 x_17  = 1.000000 + 5.00 x_18  = 0.000000 + 4.00 x_19  = 0.000000 + 10.00 x_20  = 0.000000 + 5.00 x_21  = 0.000000 + 8.00 x_22  = 0.000000 + 6.00 x_23  = 0.000000 + 7.00 x_24  = 1.000000 + 5.00 x_25  = 1.000000 <= 75.00
C_3:	 1.00 x_1  = 0.783784 + 10.00 x_2  = 1.000000 + 3.00 x_3  = 0.000000 + 8.00 x_4  = 1.000000 + 4.00 x_5  = 1.000000 + 1.00 x_6  = 0.054054 + 7.00 x_7  = 0.000000 + 9.00 x_8  = 0.256757 + 9.00 x_9  = 0.000000 + 7.00 x_10  = 1.000000 + 1.00 x_11  = 1.000000 + 2.00 x_12  = 0.000000 + 5.00 x_13  = 0.000000 + 2.00 x_14  = 1.000000 + 10.00 x_15  = 1.000000 + 4.00 x_16  = 1.000000 + 1.00 x_17  = 1.000000 + 8.00 x_18  = 0.000000 + 9.00 x_19  = 0.000000 + 7.00 x_20  = 0.000000 + 6.00 x_21  = 0.000000 + 6.00 x_22  = 0.000000 + 7.00 x_23  = 0.000000 + 10.00 x_24  = 1.000000 + 1.00 x_25  = 1.000000 <= 69.00
C_4:	 6.00 x_1  = 0.783784 + 6.00 x_2  = 1.000000 + 8.00 x_3  = 0.000000 + 2.00 x_4  = 1.000000 + 5.00 x_5  = 1.000000 + 5.00 x_6  = 0.054054 + 4.00 x_7  = 0.000000 + 4.00 x_8  = 0.256757 + 7.00 x_9  = 0.000000 + 1.00 x_10  = 1.000000 + 7.00 x_11  = 1.000000 + 10.00 x_12  = 0.000000 + 9.00 x_13  = 0.000000 + 7.00 x_14  = 1.000000 + 8.00 x_15  = 1.000000 + 7.00 x_16  = 1.000000 + 7.00 x_17  = 1.000000 + 1.00 x_18  = 0.000000 + 2.00 x_19  = 0.000000 + 1.00 x_20  = 0.000000 + 10.00 x_21  = 0.000000 + 5.00 x_22  = 0.000000 + 3.00 x_23  = 0.000000 + 7.00 x_24  = 1.000000 + 5.00 x_25  = 1.000000 <= 68.00
C_5:	 9.00 x_1  = 0.783784 + 4.00 x_2  = 1.000000 + 10.00 x_3  = 0.000000 + 7.00 x_4  = 1.000000 + 6.00 x_5  = 1.000000 + 10.00 x_6  = 0.054054 + 3.00 x_7  = 0.000000 + 1.00 x_8  = 0.256757 + 10.00 x_9  = 0.000000 + 4.00 x_10  = 1.000000 + 7.00 x_11  = 1.000000 + 4.00 x_12  = 0.000000 + 7.00 x_13  = 0.000000 + 3.00 x_14  = 1.000000 + 2.00 x_15  = 1.000000 + 10.00 x_16  = 1.000000 + 1.00 x_17  = 1.000000 + 3.00 x_18  = 0.000000 + 10.00 x_19  = 0.000000 + 10.00 x_20  = 0.000000 + 10.00 x_21  = 0.000000 + 7.00 x_22  = 0.000000 + 6.00 x_23  = 0.000000 + 2.00 x_24  = 1.000000 + 8.00 x_25  = 1.000000 <= 77.00
Solution initial: 94.743243 
Number Constraints Used in Cover:5
GRASP Method!
Number cuts repeat: 0
value: 94.743243
Number Constraints Used in Cover:10
GRASP Method!
Number cuts repeat: 0
value: 94.743243
Number Constraints Used in Cover:12
GRASP Method!
Number cuts repeat: 0
value: 94.743243
Number Constraints Used in Cover:15
GRASP Method!
Number cuts repeat: 0
value: 94.743243
Number Constraints Used in Cover:20
GRASP Method!
Number cuts repeat: 0
value: 94.743243
Number Constraints Used in Cover:25
GRASP Method!
Number cuts repeat: 0
value: 94.743243
Number Constraints Used in Cover:27
GRASP Method!
Number cuts repeat: 0
value: 94.743243
Number Constraints Used in Cover:30
GRASP Method!
Number cuts repeat: 0
value: 94.743243
Number Constraints Used in Cover:33
GRASP Method!
Number cuts repeat: 0
value: 94.743243
Number Constraints Used in Cover:38
GRASP Method!
Number cuts repeat: 0
value: 94.743243
Number Constraints Used in Cover:42
GRASP Method!
Number cuts repeat: 0
value: 94.743243
Number Constraints Used in Cover:44
GRASP Method!
Number cuts repeat: 0
value: 94.743243
Number Constraints Used in Cover:47
GRASP Method!
Number cuts repeat: 0
value: 94.743243
Number Constraints Used in Cover:52
GRASP Method!
Number cuts repeat: 0
value: 94.743243
Number Constraints Used in Cover:56
GRASP Method!
Number cuts repeat: 0
value: 94.743243
Number Constraints Used in Cover:57
GRASP Method!
Number cuts repeat: 0
value: 94.743243
Number Constraints Used in Cover:60
GRASP Method!
Number cuts repeat: 0
value: 94.743243
Number Constraints Used in Cover:61
GRASP Method!
Number cuts repeat: 0
value: 94.743243
Number Constraints Used in Cover:66
GRASP Method!
Number cuts repeat: 0
value: 94.743243
Number Constraints Used in Cover:71
GRASP Method!
Number cuts repeat: 0
value: 94.743243
Number Constraints Used in Cover:75
GRASP Method!
Number cuts repeat: 0
value: 94.743243
Number Constraints Used in Cover:77
GRASP Method!
Number cuts repeat: 0
value: 94.743243
Number Constraints Used in Cover:81
GRASP Method!
Number cuts repeat: 0
value: 94.743243
Number Constraints Used in Cover:81
GRASP Method!
Number cuts repeat: 0
value: 94.743243
Number Constraints Used in Cover:85
GRASP Method!
Number cuts repeat: 0
value: 94.743243
Number Constraints Used in Cover:87
GRASP Method!
Number cuts repeat: 0
value: 94.743243
Number Constraints Used in Cover:87
GRASP Method!
Number cuts repeat: 0
value: 94.743243
Number Constraints Used in Cover:90
GRASP Method!
Number cuts repeat: 0
value: 94.743243
Number Constraints Used in Cover:93
GRASP Method!
Number cuts repeat: 0
value: 94.743243
Number Constraints Used in Cover:96
GRASP Method!
Number cuts repeat: 0
value: 94.743243
Number Constraints Used in Cover:100
GRASP Method!
Number cuts repeat: 0
value: 94.743243
Number Constraints Used in Cover:105
GRASP Method!
Number cuts repeat: 0
value: 94.743243
Number Constraints Used in Cover:107
GRASP Method!
Number cuts repeat: 0
value: 94.743243
Number Constraints Used in Cover:112
GRASP Method!
Number cuts repeat: 0
value: 94.743243
Number Constraints Used in Cover:113
GRASP Method!
Number cuts repeat: 0
value: 94.743243
Number Constraints Used in Cover:114
GRASP Method!
Number cuts repeat: 0
value: 94.743243
Number Constraints Used in Cover:116
GRASP Method!
Number cuts repeat: 0
value: 94.743243
Number Constraints Used in Cover:120
GRASP Method!
Number cuts repeat: 0
value: 94.743243
Number Constraints Used in Cover:122
GRASP Method!
Number cuts repeat: 0
value: 94.743243
Number Constraints Used in Cover:127
GRASP Method!
Number cuts repeat: 0
value: 94.743243
Number Constraints Used in Cover:132
GRASP Method!
Number cuts repeat: 0
value: 94.743243
Number Constraints Used in Cover:135
GRASP Method!
Number cuts repeat: 0
value: 94.743243
Number Constraints Used in Cover:136
GRASP Method!
Number cuts repeat: 0
value: 94.743243
Number Constraints Used in Cover:140
GRASP Method!
Number cuts repeat: 0
value: 94.743243
Number Constraints Used in Cover:145
GRASP Method!
Number cuts repeat: 0
value: 94.743243
Number Constraints Used in Cover:147
GRASP Method!
Number cuts repeat: 0
value: 94.743243
Number Constraints Used in Cover:151
GRASP Method!
Number cuts repeat: 0
value: 94.743243
Number Constraints Used in Cover:153
GRASP Method!
Number cuts repeat: 0
value: 94.743243
Number Constraints Used in Cover:155
GRASP Method!
Number cuts repeat: 0
value: 94.743243
Number Constraints Used in Cover:156
GRASP Method!
Number cuts repeat: 0
value: 94.743243
Number Constraints Used in Cover:157
GRASP Method!
Number cuts repeat: 0
value: 94.743243
Number Constraints Used in Cover:162
GRASP Method!
Number cuts repeat: 0
value: 94.743243
Number Constraints Used in Cover:167
GRASP Method!
Number cuts repeat: 0
value: 94.743243
Number Constraints Used in Cover:169
GRASP Method!
Number cuts repeat: 0
value: 94.743243
Number Constraints Used in Cover:169
GRASP Method!
Number cuts repeat: 0
value: 94.743243
Number Constraints Used in Cover:171
GRASP Method!
Number cuts repeat: 0
value: 94.743243
Number Constraints Used in Cover:172
GRASP Method!
Number cuts repeat: 0
value: 94.743243
Number Constraints Used in Cover:177
GRASP Method!
Number cuts repeat: 0
value: 94.743243
Number Constraints Used in Cover:185
GRASP Method!
Number cuts repeat: 0
value: 94.743243
Number Constraints Used in Cover:191
GRASP Method!
Number cuts repeat: 0
value: 94.743243
Number Constraints Used in Cover:193
GRASP Method!
Number cuts repeat: 0
value: 94.743243
Number Constraints Used in Cover:199
GRASP Method!
Number cuts repeat: 0
value: 94.743243
Number Constraints Used in Cover:203
GRASP Method!
Number cuts repeat: 0
value: 94.743243
Number Constraints Used in Cover:211
GRASP Method!
Number cuts repeat: 0
value: 94.743243
Number Constraints Used in Cover:215
GRASP Method!
Number cuts repeat: 0
value: 94.743243
Number Constraints Used in Cover:217
GRASP Method!
Number cuts repeat: 0
value: 94.743243
Number Constraints Used in Cover:222
GRASP Method!
Number cuts repeat: 0
value: 94.743243
Number Constraints Used in Cover:229
GRASP Method!
Number cuts repeat: 0
value: 94.743243
Number Constraints Used in Cover:234
GRASP Method!
Number cuts repeat: 0
value: 94.743243
Number Constraints Used in Cover:242
GRASP Method!
Number cuts repeat: 0
value: 94.743243
Number Constraints Used in Cover:246
GRASP Method!
Number cuts repeat: 0
value: 94.743243
Number Constraints Used in Cover:254
GRASP Method!
Number cuts repeat: 0
value: 94.743243
Number Constraints Used in Cover:256
GRASP Method!
Number cuts repeat: 0
value: 94.743243
Number Constraints Used in Cover:265
GRASP Method!
Number cuts repeat: 0
value: 94.743243
Number Constraints Used in Cover:275
GRASP Method!
Number cuts repeat: 0
value: 94.743243
Number Constraints Used in Cover:278
GRASP Method!
Number cuts repeat: 0
value: 94.743243
Number Constraints Used in Cover:283
GRASP Method!
Number cuts repeat: 0
value: 94.743243
Number Constraints Used in Cover:288
GRASP Method!
Number cuts repeat: 0
value: 94.743243
Number Constraints Used in Cover:293
GRASP Method!
Number cuts repeat: 0
value: 94.743243
Number Constraints Used in Cover:297
GRASP Method!
Number cuts repeat: 0
value: 94.743243
Number Constraints Used in Cover:303
GRASP Method!
Number cuts repeat: 0
value: 94.743243
Number Constraints Used in Cover:308
GRASP Method!
Number cuts repeat: 0
value: 94.743243
Number Constraints Used in Cover:312
GRASP Method!
Number cuts repeat: 0
value: 94.743243
Number Constraints Used in Cover:319
GRASP Method!
Number cuts repeat: 0
value: 94.743243
Number Constraints Used in Cover:322
GRASP Method!
Number cuts repeat: 0
value: 94.743243
Number Constraints Used in Cover:325
GRASP Method!
Number cuts repeat: 0
value: 94.743243
Number Constraints Used in Cover:328
GRASP Method!
Number cuts repeat: 0
value: 94.743243
Number Constraints Used in Cover:332
GRASP Method!
Number cuts repeat: 0
value: 94.743243
Number Constraints Used in Cover:340
GRASP Method!
Number cuts repeat: 0
value: 94.743243
Number Constraints Used in Cover:347
GRASP Method!
Number cuts repeat: 0
value: 94.743243
Number Constraints Used in Cover:356
GRASP Method!
Number cuts repeat: 0
value: 94.743243
Number Constraints Used in Cover:357
GRASP Method!
Number cuts repeat: 0
value: 94.743243
Number Constraints Used in Cover:363
GRASP Method!
Number cuts repeat: 0
value: 94.743243
Number Constraints Used in Cover:365
GRASP Method!
Number cuts repeat: 0
value: 94.743243
Number Constraints Used in Cover:370
GRASP Method!
Number cuts repeat: 0
value: 94.743243
Number Constraints Used in Cover:373
GRASP Method!
Number cuts repeat: 0
value: 94.743243
Number Constraints Used in Cover:381
GRASP Method!
Number cuts repeat: 0
value: 94.743243
Number Constraints Used in Cover:387
GRASP Method!
Number cuts repeat: 0
value: 94.743243
Number Constraints Used in Cover:391
GRASP Method!
Number cuts repeat: 0
value: 94.743243
Number Constraints Used in Cover:396
GRASP Method!
Number cuts repeat: 0
value: 94.743243
Number Constraints Used in Cover:401
GRASP Method!
Number cuts repeat: 0
value: 94.743243
Number Constraints Used in Cover:403
GRASP Method!
Number cuts repeat: 0
value: 94.743243
Number Constraints Used in Cover:408
GRASP Method!
Number cuts repeat: 0
value: 94.743243
Number Constraints Used in Cover:414
GRASP Method!
Number cuts repeat: 0
value: 94.743243
Number Constraints Used in Cover:416
GRASP Method!
Number cuts repeat: 0
value: 94.743243
Number Constraints Used in Cover:423
GRASP Method!
Number cuts repeat: 0
value: 94.743243
Number Constraints Used in Cover:432
GRASP Method!
Number cuts repeat: 0
value: 94.743243
Number Constraints Used in Cover:432
GRASP Method!
Number cuts repeat: 0
value: 94.743243
Number Constraints Used in Cover:438
GRASP Method!
Number cuts repeat: 0
value: 94.743243
Number Constraints Used in Cover:443
GRASP Method!
Number cuts repeat: 0
value: 94.743243
Number Constraints Used in Cover:452
GRASP Method!
Number cuts repeat: 0
value: 94.743243
Number Constraints Used in Cover:454
GRASP Method!
Number cuts repeat: 0
value: 94.743243
Number Constraints Used in Cover:457
GRASP Method!
Number cuts repeat: 0
value: 94.743243
Number Constraints Used in Cover:464
GRASP Method!
Number cuts repeat: 0
value: 94.743243
Number Constraints Used in Cover:470
GRASP Method!
Number cuts repeat: 0
value: 94.743243
Number Constraints Used in Cover:475
GRASP Method!
Number cuts repeat: 0
value: 94.743243
Number Constraints Used in Cover:480
GRASP Method!
Number cuts repeat: 0
value: 94.743243
Number Constraints Used in Cover:483
GRASP Method!
Number cuts repeat: 0
value: 94.743243
Number Constraints Used in Cover:487
GRASP Method!
Number cuts repeat: 0
value: 94.743243
Number Constraints Used in Cover:496
GRASP Method!
Number cuts repeat: 0
value: 94.743243
Number Constraints Used in Cover:500
GRASP Method!
Number cuts repeat: 0
value: 94.743243
Number Constraints Used in Cover:504
GRASP Method!
Number cuts repeat: 0
value: 94.743243
Number Constraints Used in Cover:507
GRASP Method!
Number cuts repeat: 0
value: 94.743243
Number Constraints Used in Cover:508
GRASP Method!
Number cuts repeat: 0
value: 94.743243
Number Constraints Used in Cover:512
GRASP Method!
Number cuts repeat: 0
value: 94.743243
Number Constraints Used in Cover:517
GRASP Method!
Number cuts repeat: 0
value: 94.743243
Number Constraints Used in Cover:523
GRASP Method!
Number cuts repeat: 0
value: 94.743243
Number Constraints Used in Cover:526
GRASP Method!
Number cuts repeat: 0
value: 94.743243
Number Constraints Used in Cover:531
GRASP Method!
Number cuts repeat: 0
value: 94.743243
Number Constraints Used in Cover:536
GRASP Method!
Number cuts repeat: 0
value: 94.743243
Number Constraints Used in Cover:541
GRASP Method!
Number cuts repeat: 0
value: 94.743243
Number Constraints Used in Cover:544
GRASP Method!
Number cuts repeat: 0
value: 94.743243
Number Constraints Used in Cover:550
GRASP Method!
Number cuts repeat: 0
value: 94.743243
Number Constraints Used in Cover:553
GRASP Method!
Number cuts repeat: 0
value: 94.743243
Number Constraints Used in Cover:556
GRASP Method!
Number cuts repeat: 0
value: 94.743243
Number Constraints Used in Cover:559
GRASP Method!
Number cuts repeat: 0
value: 94.743243
Number Cuts Final: 560
